36 36
23
3 3 25 33
3 4 25 0
3 5 0 7
3 6 33 14
3 7 0 0
3 8 30 14
3 9 7 27
3 10 30 4
3 11 30 22
3 12 7 0
3 14 33 0
3 15 7 12
3 16 33 20
3 24 0 12
3 36 22 0
4 3 3 0
4 11 3 3
4 22 3 14
5 3 28 33
5 4 28 0
5 14 25 19
5 15 25 4
12 36 10 0
